nbNodes = 12;
nbVehi = 5;
nbServi = 5;

e = 
 [|    0,   28,   90,  298,   83,  156,  318,  449,   14,   97,   12,    0,
 |    0,  245,   35,    1,   51,  288,  256,  335,  300,   62,   77,    0,
 |    0,    4,  153,  158,  382,  174,  193,  256,   33,  141,  165,    0,
 |    0,  239,  265,  302,  277,    3,  131,  299,   24,    2,  248,    0,
 |    0,  334,  144,  203,  382,  277,  294,   36,  160,  178,  267,    0,
 |];

l = 
 [| 480,  87, 139, 329, 133, 215, 357, 492,  44, 140,  68, 480,
 | 480, 286,  88,  35,  82, 336, 295, 380, 341,  98, 136, 480,
 | 480,  60, 194, 194, 426, 205, 250, 295,  92, 177, 204, 480,
 | 480, 276, 303, 348, 310,  50, 183, 336,  73,  44, 308, 480,
 | 480, 371, 195, 243, 438, 321, 330,  88, 201, 208, 322, 480,
 |];

a = 
 [|  1,  1,  1,  1,  1,
 |  1,  1,  1,  1,  0,
 |  1,  1,  1,  0,  1,
 |  0,  1,  0,  1,  0,
 |  1,  1,  1,  1,  1,
 |];

p = array3d(1..nbNodes,1..nbVehi,1..nbServi,
[  0,  0,  0,  0,  0,	  0,  0,  0,  0,  0,	  0,  0,  0,  0,  0,	  0,  0,  0,  0,  0,	  0,  0,  0,  0,  0,	
 14, 29, 11, 20, 20,	 11, 17, 11, 15, 21,	  5, 27,  7, 15, 20,	 21, 20, 24, 19,  7,	 20, 14, 17, 20, 16,	
 17, 14, 21, 15, 28,	 10, 26,  5, 16, 16,	 20, 24,  5, 26, 11,	 22, 26,  8, 24, 14,	 26, 16,  6, 20,  7,	
 10, 11, 19, 22, 26,	  5, 10, 12, 21, 22,	 13, 28, 18, 13, 16,	  7, 28, 12,  7, 26,	 18, 24, 23, 24, 21,	
  9, 20,  9, 10, 10,	 11, 16, 18, 25, 10,	 15, 28, 17, 24, 19,	  9,  7, 20, 25, 15,	  6, 27, 15, 16,  6,	
 12, 29, 28,  5, 23,	 19, 11, 15, 23, 16,	 21, 29, 29,  9, 27,	 12, 21, 25, 24, 16,	 16, 29, 18,  6, 24,	
  6, 10, 23, 16, 21,	 24, 23, 22, 24, 25,	 18, 13,  6, 28,  6,	 20, 19,  8, 21, 26,	  7, 28, 17, 27, 23,	
  5, 15, 24, 21, 19,	 20, 22, 24, 15,  8,	 17, 11, 29, 11,  6,	 26, 24, 14,  5, 25,	 18, 20, 16, 23, 11,	
 12, 27, 12, 27, 26,	  7, 27, 11, 28, 18,	 25, 20, 10, 21,  5,	 16, 10, 11, 17, 17,	 14, 13, 13, 26, 13,	
  8, 14,  5, 20,  9,	 14, 27,  6, 21, 24,	 27, 23, 24, 10, 21,	 12,  6, 13, 20, 24,	 13,  8,  5, 21, 20,	
 17,  6,  5, 25, 27,	 16,  6, 13, 16, 21,	 19, 27, 20, 22, 18,	 15, 21, 13,  9, 26,	  6, 18, 27, 14,  8,	
  0,  0,  0,  0,  0,	  0,  0,  0,  0,  0,	  0,  0,  0,  0,  0,	  0,  0,  0,  0,  0,	  0,  0,  0,  0,  0,	
]);

rs = 
[|true,true,true,true,true,
 |false,false,false,false,true,
 |false,false,false,true,false,
 |false,false,false,false,true,
 |false,true,false,false,false,
 |false,false,false,true,false,
 |false,false,false,true,false,
 |false,false,false,false,true,
 |false,true,false,false,false,
 |false,false,false,true,false,
 |false,false,false,true,false,
 |true,true,true,true,true,
 |];

d=[|0, 22, 4, 16, 27, 21, 25, 17, 12, 13, 18, 0, 
|22, 0, 26, 33, 44, 8, 48, 8, 33, 36, 39, 22, 
|4, 26, 0, 14, 24, 26, 21, 21, 9, 9, 15, 4, 
|16, 33, 14, 0, 11, 36, 22, 31, 5, 15, 25, 16, 
|27, 44, 24, 11, 0, 47, 23, 42, 15, 22, 32, 27, 
|21, 8, 26, 36, 47, 0, 46, 5, 34, 34, 35, 21, 
|25, 48, 21, 22, 23, 46, 0, 42, 18, 12, 15, 25, 
|17, 8, 21, 31, 42, 5, 42, 0, 29, 30, 31, 17, 
|12, 33, 9, 5, 15, 34, 18, 29, 0, 9, 20, 12, 
|13, 36, 9, 15, 22, 34, 12, 30, 9, 0, 10, 13, 
|18, 39, 15, 25, 32, 35, 15, 31, 20, 10, 0, 18, 
|0, 22, 4, 16, 27, 21, 25, 17, 12, 13, 18, 0, 
|];

%coord=[ (0,0), (21,8), (-4,-2), (-3,-16), (-8,-26), (16,15), (-24,-9), (13,11), (-6,-11), (-13,-4), (-18,5), (0,0), ];

